NAME : instances/clustered-mixed-tsp/instance-93.tsp
COMMENT : No Comment
TYPE : TSP
DIMENSION: 49
EDGE_WEIGHT_TYPE : EUC_2D
NODE_COORD_SECTION
1 1074 162 
2 -46 130 
3 542 334 
4 906 6 
5 274 366 
6 402 -230 
7 226 234 
8 830 1066 
9 602 170 
10 782 302 
11 774 -38 
12 650 1054 
13 274 502 
14 630 -146 
15 702 202 
16 750 -210 
17 654 -114 
18 938 218 
19 566 298 
20 530 62 
21 282 230 
22 678 142 
23 350 -26 
24 822 42 
25 454 466 
26 122 442 
27 158 142 
28 -118 106 
29 -190 574 
30 482 990 
31 914 -166 
32 338 70 
33 522 -146 
34 566 82 
35 530 262 
36 1062 150 
37 354 834 
38 554 122 
39 314 -182 
40 654 214 
41 538 430 
42 582 266 
43 702 226 
44 794 278 
45 1026 234 
46 98 -182 
47 98 226 
48 418 418 
49 866 206 
EOF
